num_features = 37;
num_usage_limits = 4;
num_plans = 4;
num_addons = 0;

features = ["pages","blocks","guests","fileUploads","versionHistory","realTimeCollaboration","linkSharing","collaborativeWorkspace","webApp","desktopApp","mobileApp","blockContentTypes","starterTemplates","wikis","docs","notes","databases","tableView","listView","calendarView","kanbanBoardView","galleryView","timelineView","api","bulkExport","adminTools","permissionGroups","advancedPermissions","advancedSecurityControls","samlSso","userProvisioning","bulkPdfExport","prioritySupport","dedicatedCustomerManager","customContract","invoicing","accessFeaturesEarly"];
usage_limits = ["membersLimit","guestsLimit","fileUploadsLimit","versionHistoryThreshold"];
plans = ["PERSONAL","PERSONAL_PRO","TEAM","ENTERPRISE"];
addons = [];

plans_prices = [0,5,10,100];
addons_prices = [];

linked_features = array2d(USAGE_LIMITS, FEATURES, [
    % membersLimit
    0,0,0,0,0,0,0,0,0,0,0,0,0,0,0,0,0,0,0,0,0,0,0,0,0,0,0,0,0,0,0,0,0,0,0,0,0,
    % guestsLimit
    0,0,1,0,0,0,0,0,0,0,0,0,0,0,0,0,0,0,0,0,0,0,0,0,0,0,0,0,0,0,0,0,0,0,0,0,0,
    % fileUploadsLimit
    0,0,0,1,0,0,0,0,0,0,0,0,0,0,0,0,0,0,0,0,0,0,0,0,0,0,0,0,0,0,0,0,0,0,0,0,0,
    % versionHistoryThreshold
    0,0,0,0,1,0,0,0,0,0,0,0,0,0,0,0,0,0,0,0,0,0,0,0,0,0,0,0,0,0,0,0,0,0,0,0,0
]);

plans_features = array2d(PLANS, FEATURES, [
    % PERSONAL
    1,1,1,1,0,1,1,0,1,1,1,1,1,1,1,1,1,1,1,1,1,1,1,1,1,0,0,0,0,0,0,0,0,0,0,0,0,
    % PERSONAL_PRO
    1,1,1,1,1,1,1,0,1,1,1,1,1,1,1,1,1,1,1,1,1,1,1,1,1,0,0,0,0,0,0,0,1,0,0,0,0,
    % TEAM
    1,1,1,1,1,1,1,1,1,1,1,1,1,1,1,1,1,1,1,1,1,1,1,1,1,1,1,1,0,0,0,0,1,0,0,0,0,
    % ENTERPRISE
    1,1,1,1,1,1,1,1,1,1,1,1,1,1,1,1,1,1,1,1,1,1,1,1,1,1,1,1,1,1,1,1,1,1,1,1,1
]);
plans_usage_limits = array2d(PLANS, USAGE_LIMITS, [
    % PERSONAL
    1,5,5,30,
    % PERSONAL_PRO
    1,Infinity,Infinity,30,
    % TEAM
    Infinity,Infinity,Infinity,30,
    % ENTERPRISE
    Infinity,Infinity,Infinity,Infinity
]);

addons_features = array2d(ADDONS, FEATURES, [
]);
addons_usage_limits = array2d(ADDONS, USAGE_LIMITS, [
]);
addons_usage_limits_extensions = array2d(ADDONS, USAGE_LIMITS, [
]);
addons_available_for = array2d(ADDONS, PLANS, [
]);
addons_depends_on = array2d(ADDONS, ADDONS, [
]);
